50
16901

483 137
559 492
556 366
656 886
583 581
294 692
835 191
899 294
784 573
431 222
653 32
142 95
567 633
105 267
35 267
37 584
525 180
458 931
737 463
797 788
600 143
859 407
704 748
483 636
385 133
151 555
156 72
46 429
379 981
173 167
929 90
796 455
2 742
429 523
151 937
110 187
299 503
204 877
71 370
669 628
267 1000
862 338
845 495
912 482
96 643
309 940
646 977
452 956
653 904
465 871
